NAME          
ROWS
 N  OBJ
 L  c1
COLUMNS
    MARKER    'MARKER'                 'INTORG'
    x[1]      c1        615
    x[1]      OBJ       -297
    x[2]      c1        901
    x[2]      OBJ       -410
    x[3]      c1        500
    x[3]      OBJ       -231
    x[4]      c1        981
    x[4]      OBJ       -748
    x[5]      c1        285
    x[5]      OBJ       -701
    x[6]      c1        233
    x[6]      OBJ       -309
    x[7]      c1        102
    x[7]      OBJ       -841
    x[8]      c1        994
    x[8]      OBJ       -295
    x[9]      c1        286
    x[9]      OBJ       -496
    x[10]     c1        459
    x[10]     OBJ       -566
    x[11]     c1        400
    x[11]     OBJ       -778
    x[12]     c1        664
    x[12]     OBJ       -139
    x[13]     c1        571
    x[13]     OBJ       -182
    x[14]     c1        446
    x[14]     OBJ       -362
    x[15]     c1        909
    x[15]     OBJ       -772
    x[16]     c1        628
    x[16]     OBJ       -489
    x[17]     c1        685
    x[17]     OBJ       -920
    x[18]     c1        558
    x[18]     OBJ       -759
    x[19]     c1        975
    x[19]     OBJ       -278
    x[20]     c1        76
    x[20]     OBJ       -272
RHS
    rhs       c1        5634
RANGES
BOUNDS
 BV bounds    x[1]
 BV bounds    x[2]
 BV bounds    x[3]
 BV bounds    x[4]
 BV bounds    x[5]
 BV bounds    x[6]
 BV bounds    x[7]
 BV bounds    x[8]
 BV bounds    x[9]
 BV bounds    x[10]
 BV bounds    x[11]
 BV bounds    x[12]
 BV bounds    x[13]
 BV bounds    x[14]
 BV bounds    x[15]
 BV bounds    x[16]
 BV bounds    x[17]
 BV bounds    x[18]
 BV bounds    x[19]
 BV bounds    x[20]
ENDATA
